c Created with the Wolfram Language : www.wolfram.com
c 
p edge 80 631
e 1 3
e 1 4
e 1 5
e 3 6
e 3 7
e 7 8
e 1 9
e 3 10
e 9 11
e 1 12
e 10 12
e 11 12
e 1 13
e 2 13
e 7 13
e 8 13
e 1 14
e 3 14
e 10 14
e 9 15
e 1 16
e 7 16
e 10 16
e 11 16
e 14 16
e 3 17
e 4 17
e 8 17
e 11 17
e 13 17
e 5 18
e 2 19
e 14 19
e 16 19
e 3 20
e 12 20
e 13 20
e 19 20
e 5 21
e 9 21
e 11 21
e 16 22
e 21 22
e 1 23
e 4 23
e 9 23
e 10 23
e 11 23
e 12 23
e 17 23
e 22 23
e 8 24
e 12 24
e 18 24
e 3 25
e 8 25
e 21 25
e 22 25
e 23 25
e 1 26
e 5 26
e 7 26
e 10 26
e 12 26
e 23 26
e 24 26
e 1 28
e 4 28
e 9 28
e 22 28
e 4 29
e 5 29
e 16 29
e 19 29
e 27 29
e 3 30
e 5 30
e 9 30
e 10 30
e 13 30
e 19 30
e 21 30
e 28 30
e 3 31
e 6 31
e 7 31
e 8 31
e 15 31
e 18 31
e 1 32
e 2 32
e 9 32
e 13 32
e 17 32
e 20 32
e 22 32
e 26 32
e 28 32
e 30 32
e 15 33
e 18 33
e 21 33
e 27 33
e 28 33
e 31 33
e 1 34
e 3 34
e 13 34
e 19 34
e 27 34
e 32 34
e 1 35
e 5 35
e 9 35
e 27 35
e 34 35
e 3 36
e 7 36
e 8 36
e 18 36
e 19 36
e 21 36
e 2 37
e 4 37
e 6 37
e 10 37
e 19 37
e 24 37
e 26 37
e 28 37
e 31 37
e 4 38
e 7 38
e 8 38
e 12 38
e 15 38
e 23 38
e 24 38
e 29 38
e 34 38
e 1 39
e 5 39
e 9 39
e 16 39
e 30 39
e 32 39
e 36 39
e 6 40
e 25 40
e 27 40
e 34 40
e 37 40
e 8 41
e 9 41
e 18 41
e 20 41
e 29 41
e 2 42
e 3 42
e 4 42
e 5 42
e 8 42
e 14 42
e 16 42
e 23 42
e 31 42
e 39 42
e 40 42
e 1 43
e 5 43
e 8 43
e 12 43
e 32 43
e 34 43
e 37 43
e 42 43
e 3 44
e 4 44
e 10 44
e 11 44
e 14 44
e 22 44
e 24 44
e 29 44
e 31 44
e 33 44
e 35 44
e 39 44
e 43 44
e 19 45
e 27 45
e 30 45
e 35 45
e 42 45
e 43 45
e 3 46
e 4 46
e 13 46
e 20 46
e 41 46
e 42 46
e 43 46
e 44 46
e 4 47
e 11 47
e 16 47
e 18 47
e 25 47
e 30 47
e 31 47
e 36 47
e 37 47
e 45 47
e 2 48
e 20 48
e 25 48
e 35 48
e 38 48
e 42 48
e 2 49
e 4 49
e 6 49
e 9 49
e 13 49
e 17 49
e 19 49
e 22 49
e 23 49
e 29 49
e 34 49
e 38 49
e 47 49
e 48 49
e 2 50
e 3 50
e 5 50
e 7 50
e 14 50
e 15 50
e 20 50
e 24 50
e 28 50
e 36 50
e 38 50
e 40 50
e 42 50
e 5 51
e 7 51
e 13 51
e 14 51
e 17 51
e 18 51
e 21 51
e 34 51
e 49 51
e 50 51
e 3 52
e 25 52
e 32 52
e 35 52
e 38 52
e 39 52
e 50 52
e 2 53
e 4 53
e 6 53
e 7 53
e 8 53
e 25 53
e 29 53
e 30 53
e 33 53
e 34 53
e 35 53
e 36 53
e 37 53
e 42 53
e 45 53
e 46 53
e 50 53
e 52 53
e 2 54
e 14 54
e 23 54
e 29 54
e 32 54
e 37 54
e 52 54
e 9 55
e 16 55
e 23 55
e 25 55
e 26 55
e 29 55
e 36 55
e 45 55
e 46 55
e 47 55
e 49 55
e 53 55
e 1 56
e 4 56
e 10 56
e 14 56
e 16 56
e 24 56
e 25 56
e 30 56
e 32 56
e 38 56
e 39 56
e 43 56
e 45 56
e 49 56
e 51 56
e 52 56
e 4 57
e 5 57
e 9 57
e 24 57
e 36 57
e 40 57
e 41 57
e 45 57
e 46 57
e 48 57
e 51 57
e 52 57
e 1 58
e 2 58
e 6 58
e 7 58
e 10 58
e 19 58
e 28 58
e 52 58
e 54 58
e 18 59
e 20 59
e 30 59
e 35 59
e 40 59
e 50 59
e 54 59
e 55 59
e 56 59
e 58 59
e 6 60
e 14 60
e 17 60
e 20 60
e 25 60
e 31 60
e 35 60
e 46 60
e 50 60
e 2 61
e 13 61
e 22 61
e 23 61
e 27 61
e 28 61
e 32 61
e 35 61
e 37 61
e 38 61
e 42 61
e 52 61
e 59 61
e 1 62
e 3 62
e 11 62
e 12 62
e 17 62
e 22 62
e 24 62
e 26 62
e 29 62
e 32 62
e 34 62
e 35 62
e 40 62
e 42 62
e 54 62
e 55 62
e 56 62
e 3 63
e 11 63
e 13 63
e 18 63
e 22 63
e 23 63
e 32 63
e 55 63
e 61 63
e 3 64
e 4 64
e 10 64
e 14 64
e 19 64
e 27 64
e 34 64
e 37 64
e 44 64
e 55 64
e 60 64
e 61 64
e 9 65
e 12 65
e 22 65
e 24 65
e 29 65
e 30 65
e 32 65
e 39 65
e 46 65
e 50 65
e 60 65
e 2 66
e 3 66
e 7 66
e 9 66
e 10 66
e 13 66
e 26 66
e 33 66
e 38 66
e 39 66
e 41 66
e 54 66
e 57 66
e 58 66
e 59 66
e 63 66
e 64 66
e 4 67
e 6 67
e 11 67
e 15 67
e 27 67
e 31 67
e 32 67
e 35 67
e 37 67
e 38 67
e 39 67
e 43 67
e 48 67
e 50 67
e 53 67
e 56 67
e 12 68
e 13 68
e 17 68
e 23 68
e 26 68
e 27 68
e 32 68
e 41 68
e 67 68
e 15 69
e 21 69
e 27 69
e 34 69
e 44 69
e 46 69
e 50 69
e 51 69
e 52 69
e 53 69
e 58 69
e 64 69
e 1 70
e 2 70
e 3 70
e 5 70
e 8 70
e 17 70
e 19 70
e 29 70
e 31 70
e 37 70
e 39 70
e 47 70
e 49 70
e 50 70
e 51 70
e 52 70
e 54 70
e 56 70
e 57 70
e 59 70
e 63 70
e 2 71
e 6 71
e 11 71
e 12 71
e 24 71
e 25 71
e 38 71
e 40 71
e 44 71
e 46 71
e 47 71
e 49 71
e 53 71
e 57 71
e 58 71
e 59 71
e 63 71
e 7 72
e 19 72
e 20 72
e 24 72
e 25 72
e 27 72
e 29 72
e 41 72
e 51 72
e 52 72
e 57 72
e 64 72
e 70 72
e 4 73
e 9 73
e 14 73
e 18 73
e 20 73
e 34 73
e 40 73
e 41 73
e 43 73
e 45 73
e 46 73
e 48 73
e 53 73
e 58 73
e 63 73
e 68 73
e 2 74
e 4 74
e 6 74
e 13 74
e 15 74
e 29 74
e 34 74
e 40 74
e 45 74
e 47 74
e 48 74
e 52 74
e 54 74
e 55 74
e 57 74
e 58 74
e 2 75
e 9 75
e 11 75
e 20 75
e 29 75
e 33 75
e 44 75
e 46 75
e 71 75
e 72 75
e 74 75
e 7 76
e 15 76
e 22 76
e 35 76
e 40 76
e 50 76
e 54 76
e 58 76
e 63 76
e 64 76
e 66 76
e 14 77
e 16 77
e 21 77
e 25 77
e 26 77
e 28 77
e 30 77
e 37 77
e 38 77
e 41 77
e 48 77
e 58 77
e 64 77
e 65 77
e 66 77
e 76 77
e 1 78
e 7 78
e 8 78
e 9 78
e 15 78
e 22 78
e 29 78
e 31 78
e 37 78
e 39 78
e 52 78
e 67 78
e 71 78
e 7 79
e 8 79
e 19 79
e 24 79
e 26 79
e 44 79
e 45 79
e 55 79
e 58 79
e 61 79
e 67 79
e 74 79
e 75 79
e 76 79
e 77 79
e 3 80
e 7 80
e 11 80
e 13 80
e 14 80
e 21 80
e 39 80
e 63 80
e 77 80
e 79 80
